sat
(model 
  (define-fun t () Bool
    true)
  (define-fun z () Bool
    true)
  (define-fun y () Bool
    false)
  (define-fun a () Bool
    false)
  (define-fun x () Bool
    true)
  (define-fun b () Bool
    true)
)